100	5
25	200
10
7
13
19
26
3
5
9
16
16
12
19
23
20
8
19
2
12
17
9
11
18
29
3
6
17
16
16
9
21
27
23
11
14
8
5
8
16
31
9
5
5
7
18
16
1
27
36
30
13
10
9
14
18
2
6
7
18
28
3
13
19
10
9
20
25
25
36
6
5
15
25
9
8
18
13
14
3
23
6
26
16
11
7
41
35
26
9
15
3
1
2
22
27
20
11
12
10
9
17
35	35	0	230	0	0
41	49	0	204	10	3
35	17	0	202	10	3
55	45	0	197	10	1
55	20	149	159	10	1
15	30	0	199	10	1
25	30	99	109	10	1
20	50	0	198	10	2
10	43	95	105	10	2
55	60	97	107	10	2
30	60	124	134	10	1
20	65	67	77	10	1
50	35	0	205	10	2
30	25	159	169	10	1
15	10	32	42	10	3
30	5	61	71	10	2
10	20	75	85	10	2
5	30	157	167	10	1
20	40	87	97	10	2
15	60	76	86	10	3
45	65	126	136	10	1
45	20	0	201	10	2
45	10	97	107	10	2
55	5	68	78	10	3
65	35	153	163	10	1
65	20	172	182	10	1
45	30	0	208	10	1
35	40	37	47	10	1
41	37	39	49	10	2
64	42	63	73	10	1
40	60	71	81	10	2
31	52	0	202	10	2
35	69	141	151	10	1
53	52	37	47	10	2
65	55	0	183	10	3
63	65	143	153	10	3
2	60	41	51	10	2
20	20	0	198	10	2
5	5	83	93	10	1
60	12	44	54	10	3
40	25	85	95	10	3
42	7	97	107	10	3
24	12	31	41	10	1
23	3	132	142	10	3
11	14	69	79	10	3
6	38	32	42	10	1
2	48	117	127	10	3
8	56	51	61	10	1
13	52	0	192	10	1
6	68	108	118	10	3
47	47	0	203	10	1
49	58	88	98	10	2
27	43	0	208	10	3
37	31	95	105	10	3
57	29	140	150	10	1
63	23	136	146	10	2
53	12	130	140	10	3
32	12	101	111	10	2
36	26	200	210	10	3
21	24	0	202	10	3
17	34	162	172	10	3
12	24	76	86	10	3
24	58	58	68	10	3
27	69	34	44	10	3
15	77	73	83	10	2
62	77	51	61	10	3
49	73	127	137	10	2
67	5	83	93	10	1
56	39	142	152	10	1
37	47	50	60	10	2
37	56	182	192	10	2
57	68	77	87	10	3
47	16	0	197	10	3
44	17	78	88	10	3
46	13	149	159	10	3
49	11	0	192	10	2
49	42	73	83	10	1
53	43	179	189	10	3
61	52	96	106	10	1
57	48	92	102	10	1
56	37	182	192	10	2
55	54	94	104	10	1
15	47	0	196	10	1
14	37	0	198	10	2
11	31	101	111	10	2
16	22	0	196	10	3
4	18	94	104	10	3
28	18	93	103	10	2
26	52	74	84	10	2
26	35	176	186	10	1
31	67	95	105	10	3
15	19	0	194	10	3
22	22	18	28	10	1
18	24	188	198	10	1
26	27	0	207	10	2
25	24	0	205	10	3
22	27	0	204	10	1
25	21	133	143	10	3
19	21	0	198	10	3
20	26	83	93	10	3
18	18	185	195	10	3
35	23	0	230	5	4
44	23	0	230	5	4
21	40	0	230	5	4
54	48	0	230	5	4
18	43	0	230	5	4
0	0	0	1	0	
1	0	0	0	0	
0	0	0	0	0	
0	0	0	0	0	
0	0	0	0	0	
0	0	0	0	0	
0	0	0	0	1	
0	0	0	0	1	
0	0	0	1	0	
0	0	0	0	0	
0	0	0	0	0	
0	1	0	0	0	
0	0	0	0	0	
1	0	0	0	0	
1	0	0	0	0	
0	0	1	0	0	
0	0	0	0	0	
0	0	1	0	0	
0	0	0	0	1	
0	0	0	0	0	
0	1	0	0	0	
0	1	0	0	0	
0	1	0	0	0	
0	0	0	0	0	
0	0	0	0	0	
0	0	0	0	0	
0	0	0	0	0	
0	1	0	0	0	
0	0	0	0	0	
0	0	0	1	0	
0	0	1	0	0	
0	0	0	0	0	
0	0	0	1	0	
0	0	0	1	0	
0	0	0	1	0	
0	0	0	0	1	
1	0	0	0	0	
0	0	0	0	0	
0	1	0	0	0	
0	1	0	0	0	
0	1	0	0	0	
0	0	0	0	0	
1	0	0	0	0	
1	0	0	0	0	
0	0	0	0	0	
0	0	0	0	1	
0	0	0	0	0	
0	0	0	0	0	
0	0	0	0	1	
0	0	0	0	0	
0	0	0	1	0	
0	0	1	0	0	
1	0	0	0	0	
0	0	0	0	0	
0	1	0	0	0	
0	1	0	0	0	
1	0	0	0	0	
1	0	0	0	0	
1	0	0	0	0	
0	0	1	0	0	
0	0	1	0	0	
0	0	0	0	1	
0	0	0	0	1	
0	0	0	0	1	
0	0	0	1	0	
0	0	0	1	0	
0	0	0	0	0	
0	0	0	0	0	
0	0	0	1	0	
0	0	0	1	0	
0	0	0	1	0	
0	1	0	0	0	
0	1	0	0	0	
0	1	0	0	0	
0	1	0	0	0	
0	0	0	0	0	
0	0	0	1	0	
0	0	0	0	0	
0	0	0	0	0	
0	0	0	1	0	
0	0	0	0	0	
0	0	0	0	0	
0	0	0	0	1	
0	0	1	0	0	
0	0	1	0	0	
0	0	1	0	0	
1	0	0	0	0	
0	0	0	0	1	
0	0	0	0	0	
0	0	0	0	1	
1	0	0	0	0	
0	0	0	0	0	
0	0	0	0	0	
1	0	0	0	0	
1	0	0	0	0	
0	0	0	0	0	
1	0	0	0	0	
1	0	0	0	0	
0	0	1	0	0	
1	0	0	0	0	
